c Random 3-CNF over 40 variables and 80 clauses
c Generated with `cnfgen`
c (C) 2012-2016 Massimo Lauria <lauria.massimo@gmail.com>
c https://massimolauria.github.io/cnfgen
c
c COMMAND LINE: cnfgen --output tmp-3-40-80.dimacs --output-format dimacs randkcnf 3 40 80
c
c sdimacs generated by gen-sdimacs
c
p cnf 40 80
e 21 22 23 24 25 26 27 28 29 30 31 32 33 34 35 36 37 38 39 40 0
r 0.37 1 2 3 4 5 6 7 8 9 10 11 12 13 14 15 16 17 18 19 20 0
20 30 -34 0
3 35 -38 0
-28 -29 39 0
6 -27 40 0
7 -17 40 0
3 13 15 0
-1 -17 34 0
7 -36 39 0
3 16 37 0
-3 -5 14 0
13 -23 35 0
-27 -31 35 0
-18 27 -35 0
17 -21 -30 0
1 19 -36 0
18 -33 -37 0
7 -9 -38 0
-1 -3 21 0
13 -37 -40 0
15 -23 -38 0
-5 9 37 0
-7 11 22 0
19 -22 24 0
2 -31 40 0
-2 16 -18 0
-3 -14 34 0
-11 14 30 0
8 -9 26 0
-5 30 -31 0
9 16 -26 0
30 31 34 0
2 -33 39 0
15 24 -40 0
-4 -18 31 0
-8 -23 33 0
5 10 -17 0
7 20 -22 0
1 -14 15 0
17 -30 31 0
9 27 -29 0
-18 31 -32 0
2 34 -40 0
1 27 -33 0
-4 21 -32 0
10 -12 -19 0
-16 18 -20 0
4 -20 -27 0
-3 14 -15 0
9 -18 -27 0
-23 -32 36 0
-11 -17 -25 0
-2 -17 36 0
5 13 -40 0
21 -25 -40 0
-13 -18 -28 0
-8 -17 -25 0
-2 35 40 0
-8 18 -39 0
30 35 -38 0
-9 -20 -29 0
2 28 39 0
-6 -11 12 0
-29 35 -39 0
2 7 34 0
-19 -22 -38 0
-5 25 -26 0
-8 25 -39 0
4 -17 38 0
-13 19 22 0
-1 37 -40 0
7 8 -9 0
6 -14 -36 0
-13 -23 -29 0
-4 -18 34 0
18 26 30 0
-9 -35 -36 0
3 -8 34 0
-3 25 40 0
1 -24 -25 0
-4 -8 22 0
